3 100 1964
6 5 7 7 8 4 3 8 6 4
2 4 3
8 3
4 5 2 7
7 8 7
0 40.0 50.0 0.0 0.0 0 240
2 25.0 85.0 10.0 20.0 0 191 74 0 0 0 0 0 1 0 0 0 0
3 22.0 75.0 10.0 30.0 0 199 75 0 0 0 0 1 0 0 0 0 0
4 22.0 85.0 10.0 10.0 0 190 71 0 0 0 0 0 0 0 1 1 0
5 20.0 80.0 10.0 40.0 141 171 91 0 0 0 0 1 0 0 0 0 0
6 20.0 85.0 10.0 20.0 0 189 90 0 0 0 1 1 0 0 1 0 1
7 18.0 75.0 10.0 20.0 95 125 98 0 0 0 1 0 0 0 0 0 0
8 15.0 75.0 10.0 20.0 0 194 30 1 0 0 0 0 0 0 1 0 0
9 15.0 80.0 10.0 10.0 91 121 10 0 0 0 0 1 0 0 0 0 1
10 10.0 35.0 10.0 20.0 91 121 21 0 0 0 0 1 0 0 0 0 0
11 10.0 40.0 10.0 30.0 119 149 21 0 0 0 1 0 0 0 0 0 1
12 8.0 40.0 10.0 40.0 59 89 67 0 1 0 0 0 0 0 1 0 0
13 8.0 45.0 10.0 20.0 0 197 36 0 0 0 0 0 1 0 0 0 0
14 5.0 35.0 10.0 10.0 142 172 26 1 0 0 0 1 0 0 0 0 0
15 5.0 45.0 10.0 10.0 35 65 55 0 0 1 0 0 0 0 1 0 0
16 2.0 40.0 10.0 20.0 58 88 61 1 1 0 0 1 0 1 1 0 0
17 0.0 40.0 10.0 20.0 72 102 35 1 0 0 0 0 0 0 0 0 0
18 0.0 45.0 10.0 20.0 149 179 95 0 1 0 0 0 0 0 0 0 0
19 44.0 5.0 10.0 20.0 87 117 73 0 0 0 0 0 0 0 1 1 1
20 42.0 10.0 10.0 40.0 72 102 67 0 0 0 0 0 0 0 0 0 1
21 42.0 15.0 10.0 10.0 122 152 61 1 1 0 0 0 0 0 0 1 1
22 40.0 5.0 10.0 10.0 0 185 84 0 0 0 1 1 0 1 0 0 0
23 40.0 15.0 10.0 40.0 92 122 57 0 0 0 0 0 1 0 0 0 0
24 38.0 5.0 10.0 30.0 65 95 89 1 1 0 0 0 0 0 0 0 0
25 38.0 15.0 10.0 10.0 148 178 90 0 0 1 0 1 1 0 1 0 1
26 35.0 5.0 10.0 20.0 154 184 65 1 0 0 0 1 0 0 0 0 0
27 95.0 30.0 10.0 30.0 0 171 98 1 0 1 0 0 0 0 0 0 0
28 95.0 35.0 10.0 20.0 62 92 20 0 0 0 0 0 1 0 1 0 0
29 92.0 30.0 10.0 10.0 62 92 7 1 0 0 0 0 1 0 0 1 0
30 90.0 35.0 10.0 10.0 67 97 44 1 0 0 1 0 0 1 0 0 0
31 88.0 30.0 10.0 10.0 74 104 73 0 0 1 0 0 1 1 1 0 0
32 88.0 35.0 10.0 20.0 0 179 75 0 0 0 0 1 0 1 1 0 1
33 87.0 30.0 10.0 10.0 131 161 12 1 1 0 0 0 0 0 0 0 0
34 85.0 25.0 10.0 10.0 51 81 5 0 0 0 0 0 0 0 0 0 1
35 85.0 35.0 10.0 30.0 0 182 3 1 0 0 0 0 0 0 0 0 0
36 67.0 85.0 10.0 20.0 139 169 73 0 0 0 1 0 1 0 0 1 0
37 65.0 85.0 10.0 40.0 43 73 39 0 0 1 0 0 0 1 1 0 0
38 65.0 82.0 10.0 10.0 0 189 63 0 0 0 0 0 1 0 0 0 0
39 62.0 80.0 10.0 30.0 75 105 77 0 0 0 0 0 0 0 0 1 0
40 60.0 80.0 10.0 10.0 37 67 53 0 0 0 0 0 1 0 0 0 0
41 60.0 85.0 10.0 30.0 85 115 79 0 0 1 1 1 0 0 1 1 0
42 58.0 75.0 10.0 20.0 92 122 63 0 0 0 1 0 1 0 0 0 0
43 55.0 80.0 10.0 10.0 33 63 53 0 0 0 1 0 0 0 0 1 0
44 55.0 85.0 10.0 20.0 128 158 66 0 0 0 1 0 0 0 0 0 0
45 55.0 82.0 10.0 10.0 64 94 89 0 0 0 1 1 0 0 0 0 0
46 20.0 82.0 10.0 10.0 37 67 65 0 0 1 0 0 0 0 0 0 0
47 18.0 80.0 10.0 10.0 113 143 70 0 1 0 0 0 0 0 0 1 0
48 2.0 45.0 10.0 10.0 45 75 47 0 0 0 0 1 0 0 0 0 0
49 42.0 5.0 10.0 10.0 0 184 50 0 0 0 0 0 0 0 0 1 1
50 42.0 12.0 10.0 10.0 104 134 92 0 0 0 0 0 0 1 1 0 0
51 72.0 35.0 10.0 30.0 0 194 99 0 0 1 0 0 0 0 0 0 1
52 55.0 20.0 10.0 19.0 83 113 40 1 0 0 1 1 0 0 0 0 0
53 25.0 30.0 10.0 3.0 0 205 8 0 0 1 0 1 0 0 0 0 0
54 20.0 50.0 10.0 5.0 91 121 71 0 0 0 1 0 0 1 0 0 0
55 55.0 60.0 10.0 16.0 139 169 81 0 0 1 0 0 0 0 1 0 0
56 30.0 60.0 10.0 16.0 140 170 35 0 0 0 0 1 1 1 0 0 0
57 50.0 35.0 10.0 19.0 130 160 78 0 0 0 0 0 0 0 0 1 0
58 30.0 25.0 10.0 23.0 96 126 90 0 1 0 0 0 0 0 0 1 0
59 15.0 10.0 10.0 20.0 152 182 60 1 0 0 1 0 0 0 0 1 0
60 10.0 20.0 10.0 19.0 0 187 73 0 1 1 0 0 0 1 1 0 0
61 15.0 60.0 10.0 17.0 155 185 61 0 1 0 0 0 0 0 0 0 0
62 45.0 65.0 10.0 9.0 66 96 22 0 0 1 1 0 0 0 0 0 0
63 65.0 35.0 10.0 3.0 52 82 60 0 0 0 1 0 0 0 0 1 1
64 65.0 20.0 10.0 6.0 39 69 89 0 0 0 0 0 0 0 0 1 0
65 45.0 30.0 10.0 17.0 53 83 29 1 0 1 1 1 0 0 0 0 1
66 35.0 40.0 10.0 16.0 11 41 32 0 0 0 1 0 0 0 1 0 1
67 41.0 37.0 10.0 16.0 133 163 77 0 0 0 0 0 0 1 0 0 1
68 64.0 42.0 10.0 9.0 70 100 16 0 0 0 0 0 1 0 0 0 0
69 40.0 60.0 10.0 21.0 144 174 9 0 0 0 0 1 0 0 0 0 0
70 31.0 52.0 10.0 27.0 41 71 62 0 1 0 1 0 0 0 1 0 1
71 35.0 69.0 10.0 23.0 180 210 48 0 0 1 0 1 0 0 0 1 0
72 65.0 55.0 10.0 14.0 65 95 36 1 0 1 1 0 0 0 0 0 0
73 63.0 65.0 10.0 8.0 0 202 20 1 0 0 0 0 1 1 0 1 0
74 2.0 60.0 10.0 5.0 77 107 32 0 1 0 0 0 0 0 0 0 0
75 20.0 20.0 10.0 8.0 141 171 17 0 0 0 0 0 0 0 0 1 0
76 5.0 5.0 10.0 16.0 0 172 23 0 0 0 0 0 1 0 0 0 0
77 60.0 12.0 10.0 31.0 75 105 33 0 0 0 0 0 1 0 0 0 0
78 23.0 3.0 10.0 7.0 150 180 72 0 0 1 0 1 0 0 0 0 0
79 8.0 56.0 10.0 27.0 90 120 35 1 1 0 0 0 1 0 0 0 0
80 6.0 68.0 10.0 30.0 89 119 31 0 0 1 0 0 0 0 0 0 0
81 47.0 47.0 10.0 13.0 192 222 86 1 1 0 0 0 1 0 0 1 0
82 49.0 58.0 10.0 10.0 86 116 36 1 0 0 0 0 0 0 0 0 1
83 27.0 43.0 10.0 9.0 0 215 63 0 0 1 0 0 0 0 0 1 0
84 37.0 31.0 10.0 14.0 0 210 83 1 0 1 0 0 1 0 0 0 0
85 57.0 29.0 10.0 18.0 96 126 65 0 0 0 0 0 1 0 1 0 0
86 63.0 23.0 10.0 2.0 0 194 75 0 0 0 0 0 1 0 0 0 0
87 21.0 24.0 10.0 28.0 87 117 49 0 0 0 0 0 1 0 0 0 1
88 12.0 24.0 10.0 13.0 90 120 77 0 1 0 0 0 0 0 0 0 0
89 24.0 58.0 10.0 19.0 67 97 36 0 0 0 0 0 1 0 1 0 0
90 67.0 5.0 10.0 25.0 144 174 35 0 0 0 0 0 0 0 0 0 1
91 37.0 47.0 10.0 6.0 86 116 51 0 1 0 0 1 1 0 0 0 0
92 49.0 42.0 10.0 13.0 0 217 39 0 0 1 0 1 0 1 0 0 0
93 53.0 43.0 10.0 14.0 14 44 67 0 1 1 0 0 0 0 1 0 0
94 61.0 52.0 10.0 3.0 178 208 66 1 1 0 1 0 0 0 0 0 0
95 57.0 48.0 10.0 23.0 0 212 92 1 0 0 0 0 0 0 0 0 0
96 56.0 37.0 10.0 6.0 0 209 96 1 0 0 0 1 0 0 0 0 0
97 55.0 54.0 10.0 26.0 0 214 72 0 0 0 1 1 0 0 0 1 0
98 4.0 18.0 10.0 35.0 120 150 18 1 0 0 0 0 0 0 0 0 0
99 26.0 52.0 10.0 9.0 0 215 66 0 1 0 1 0 0 0 0 0 0
100 26.0 35.0 10.0 15.0 77 107 60 1 0 0 1 1 0 0 0 0 0
101 31.0 67.0 10.0 3.0 180 210 87 0 0 0 0 1 0 1 0 0 0